Maximize
z: 0 x1 + 1 x2 + 2 x3 + 3 x4 + 4 x5 + 5 x6 + 6 x7 + 7 x8 + 8 x9 + 9 x10 + 10 x11 + 11 x12 + 12 x13 + 13 x14 + 14 x15 + 15 x16 + 16 x17 + 17 x18 + 18 x19 + 19 x20 + 20 x21 + 21 x22 + 22 x23 + 23 x24 + 24 x25 + 25 x26 + 26 x27 + 27 x28 + 28 x29 + 29 x30 + 30 x31 + 31 x32 + 32 x33 + 33 x34 + 34 x35 + 35 x36 + 36 x37 + 37 x38 + 38 x39 + 39 x40 + 40 x41 + 41 x42 + 42 x43 + 43 x44 + 44 x45 + 45 x46 + 46 x47 + 47 x48 + 48 x49 + 49 x50 + 50 x51 + 51 x52 + 52 x53 + 53 x54 + 54 x55 + 55 x56 + 56 x57 + 57 x58 + 58 x59 + 59 x60 + 60 x61 + 61 x62 + 62 x63 + 63 x64 + 64 x65 + 65 x66 + 66 x67 + 67 x68 + 68 x69 + 69 x70 + 70 x71 + 71 x72 + 72 x73 + 73 x74 + 74 x75 + 75 x76 + 76 x77 + 77 x78 + 78 x79 + 79 x80 + 80 x81 + 81 x82 + 82 x83 + 83 x84 + 84 x85 + 85 x86 + 86 x87 + 87 x88 + 88 x89 + 89 x90 + 90 x91 + 91 x92 + 92 x93 + 93 x94 + 94 x95 + 95 x96 + 96 x97 + 97 x98 + 98 x99 + 99 x100 + 100 x101 + 101 x102 + 102 x103 + 103 x104 + 104 x105 + 105 x106 + 106 x107 + 107 x108 + 108 x109 + 109 x110 + 110 x111 + 111 x112 + 112 x113 + 113 x114 + 114 x115 + 115 x116 + 116 x117 + 117 x118 + 118 x119 + 119 x120 + 120 x121 + 121 x122 + 122 x123 + 123 x124 + 124 x125 + 125 x126 + 126 x127 + 127 x128 + 128 x129 + 129 x130 + 130 x131 + 131 x132 + 132 x133 + 133 x134 + 134 x135 + 135 x136 + 136 x137 + 137 x138 + 138 x139 + 139 x140 + 140 x141 + 141 x142 + 142 x143 + 143 x144 + 144 x145 + 145 x146 + 146 x147 + 147 x148 + 148 x149 + 149 x150 + 150 x151 + 151 x152 + 152 x153 + 153 x154 + 154 x155 + 155 x156 + 156 x157 + 157 x158 + 158 x159 + 159 x160 + 160 x161 + 161 x162 + 162 x163 + 163 x164 + 164 x165 + 165 x166 + 166 x167 + 167 x168 + 168 x169 + 169 x170 + 170 x171 + 171 x172 + 172 x173 + 173 x174 + 174 x175 + 175 x176 + 176 x177 + 177 x178 + 178 x179 + 179 x180 + 180 x181 + 181 x182 + 182 x183 + 183 x184 + 184 x185 + 185 x186 + 186 x187 + 187 x188 + 188 x189 + 189 x190 + 190 x191 + 191 x192 + 192 x193 + 193 x194 + 194 x195 + 195 x196 + 196 x197 + 197 x198 + 198 x199 + 199 x200 + 200 x201 + 201 x202 + 202 x203 + 203 x204 + 204 x205 + 205 x206 + 206 x207 + 207 x208 + 208 x209 + 209 x210 + 210 x211 + 211 x212 + 212 x213 + 213 x214 + 214 x215 + 215 x216 + 216 x217 + 217 x218 + 218 x219 + 219 x220 + 220 x221 + 221 x222 + 222 x223 + 223 x224 + 224 x225 + 225 x226 + 226 x227 + 227 x228 + 228 x229 + 229 x230 + 230 x231 + 231 x232 + 232 x233 + 233 x234 + 234 x235 + 235 x236 + 236 x237 + 237 x238 + 238 x239 + 239 x240 + 240 x241 + 241 x242 + 242 x243 + 243 x244 + 244 x245 + 245 x246 + 246 x247 + 247 x248 + 248 x249 + 249 x250 + 250 x251 + 251 x252 + 252 x253 + 253 x254 + 254 x255 + 255 x256 + 256 x257 + 257 x258 + 258 x259 + 259 x260 + 260 x261 + 261 x262 + 262 x263 + 263 x264 + 264 x265 + 265 x266 + 266 x267 + 267 x268 + 268 x269 + 269 x270 + 270 x271 + 271 x272 + 272 x273 + 273 x274 + 274 x275 + 275 x276 + 276 x277 + 277 x278 + 278 x279 + 279 x280 + 280 x281 + 281 x282 + 282 x283 + 283 x284 + 284 x285 + 285 x286 + 286 x287 + 287 x288 + 288 x289 + 289 x290 + 290 x291 + 291 x292 + 292 x293 + 293 x294 + 294 x295 + 295 x296 + 296 x297 + 297 x298 + 298 x299 
Subject To
poids: 16 x1 + 13 x2 + 18 x3 + 12 x4 + 10 x5 + 10 x6 + 11 x7 + 18 x8 + 16 x9 + 6 x10 + 13 x11 + 7 x12 + 9 x13 + 6 x14 + 16 x15 + 18 x16 + 15 x17 + 15 x18 + 6 x19 + 6 x20 + 8 x21 + 6 x22 + 15 x23 + 5 x24 + 12 x25 + 13 x26 + 14 x27 + 13 x28 + 5 x29 + 7 x30 + 8 x31 + 14 x32 + 16 x33 + 17 x34 + 12 x35 + 9 x36 + 11 x37 + 7 x38 + 15 x39 + 12 x40 + 9 x41 + 8 x42 + 19 x43 + 8 x44 + 7 x45 + 7 x46 + 10 x47 + 9 x48 + 14 x49 + 8 x50 + 11 x51 + 13 x52 + 13 x53 + 10 x54 + 7 x55 + 10 x56 + 6 x57 + 16 x58 + 15 x59 + 9 x60 + 16 x61 + 16 x62 + 18 x63 + 15 x64 + 14 x65 + 14 x66 + 12 x67 + 14 x68 + 8 x69 + 17 x70 + 7 x71 + 13 x72 + 10 x73 + 13 x74 + 16 x75 + 7 x76 + 7 x77 + 13 x78 + 12 x79 + 8 x80 + 9 x81 + 7 x82 + 14 x83 + 16 x84 + 11 x85 + 18 x86 + 8 x87 + 11 x88 + 7 x89 + 6 x90 + 15 x91 + 17 x92 + 8 x93 + 11 x94 + 13 x95 + 12 x96 + 14 x97 + 6 x98 + 11 x99 + 8 x100 + 7 x101 + 17 x102 + 9 x103 + 13 x104 + 12 x105 + 12 x106 + 15 x107 + 5 x108 + 12 x109 + 14 x110 + 17 x111 + 18 x112 + 12 x113 + 17 x114 + 6 x115 + 10 x116 + 9 x117 + 7 x118 + 10 x119 + 14 x120 + 10 x121 + 10 x122 + 14 x123 + 6 x124 + 8 x125 + 13 x126 + 9 x127 + 11 x128 + 14 x129 + 19 x130 + 14 x131 + 8 x132 + 5 x133 + 19 x134 + 10 x135 + 8 x136 + 6 x137 + 14 x138 + 7 x139 + 9 x140 + 10 x141 + 11 x142 + 12 x143 + 14 x144 + 6 x145 + 16 x146 + 5 x147 + 5 x148 + 18 x149 + 7 x150 + 13 x151 + 9 x152 + 11 x153 + 8 x154 + 9 x155 + 11 x156 + 16 x157 + 6 x158 + 10 x159 + 16 x160 + 13 x161 + 18 x162 + 12 x163 + 11 x164 + 11 x165 + 10 x166 + 18 x167 + 6 x168 + 7 x169 + 11 x170 + 9 x171 + 13 x172 + 7 x173 + 10 x174 + 10 x175 + 19 x176 + 11 x177 + 11 x178 + 9 x179 + 17 x180 + 13 x181 + 14 x182 + 6 x183 + 8 x184 + 9 x185 + 15 x186 + 10 x187 + 9 x188 + 7 x189 + 15 x190 + 11 x191 + 6 x192 + 16 x193 + 16 x194 + 14 x195 + 5 x196 + 21 x197 + 9 x198 + 14 x199 + 10 x200 + 7 x201 + 11 x202 + 10 x203 + 18 x204 + 15 x205 + 7 x206 + 15 x207 + 15 x208 + 11 x209 + 8 x210 + 5 x211 + 6 x212 + 7 x213 + 12 x214 + 8 x215 + 14 x216 + 6 x217 + 10 x218 + 10 x219 + 6 x220 + 11 x221 + 13 x222 + 14 x223 + 10 x224 + 11 x225 + 12 x226 + 11 x227 + 13 x228 + 15 x229 + 14 x230 + 6 x231 + 9 x232 + 8 x233 + 9 x234 + 13 x235 + 11 x236 + 9 x237 + 15 x238 + 14 x239 + 10 x240 + 5 x241 + 16 x242 + 15 x243 + 9 x244 + 11 x245 + 13 x246 + 17 x247 + 16 x248 + 12 x249 + 14 x250 + 11 x251 + 17 x252 + 9 x253 + 8 x254 + 11 x255 + 13 x256 + 16 x257 + 13 x258 + 12 x259 + 10 x260 + 16 x261 + 17 x262 + 16 x263 + 13 x264 + 8 x265 + 8 x266 + 14 x267 + 9 x268 + 16 x269 + 17 x270 + 5 x271 + 14 x272 + 6 x273 + 18 x274 + 7 x275 + 13 x276 + 8 x277 + 5 x278 + 14 x279 + 7 x280 + 15 x281 + 18 x282 + 11 x283 + 7 x284 + 10 x285 + 6 x286 + 15 x287 + 12 x288 + 8 x289 + 13 x290 + 9 x291 + 12 x292 + 12 x293 + 12 x294 + 11 x295 + 16 x296 + 9 x297 + 17 x298 + 6 x299 <= 10
Binaries
x1
x2
x3
x4
x5
x6
x7
x8
x9
x10
x11
x12
x13
x14
x15
x16
x17
x18
x19
x20
x21
x22
x23
x24
x25
x26
x27
x28
x29
x30
x31
x32
x33
x34
x35
x36
x37
x38
x39
x40
x41
x42
x43
x44
x45
x46
x47
x48
x49
x50
x51
x52
x53
x54
x55
x56
x57
x58
x59
x60
x61
x62
x63
x64
x65
x66
x67
x68
x69
x70
x71
x72
x73
x74
x75
x76
x77
x78
x79
x80
x81
x82
x83
x84
x85
x86
x87
x88
x89
x90
x91
x92
x93
x94
x95
x96
x97
x98
x99
x100
x101
x102
x103
x104
x105
x106
x107
x108
x109
x110
x111
x112
x113
x114
x115
x116
x117
x118
x119
x120
x121
x122
x123
x124
x125
x126
x127
x128
x129
x130
x131
x132
x133
x134
x135
x136
x137
x138
x139
x140
x141
x142
x143
x144
x145
x146
x147
x148
x149
x150
x151
x152
x153
x154
x155
x156
x157
x158
x159
x160
x161
x162
x163
x164
x165
x166
x167
x168
x169
x170
x171
x172
x173
x174
x175
x176
x177
x178
x179
x180
x181
x182
x183
x184
x185
x186
x187
x188
x189
x190
x191
x192
x193
x194
x195
x196
x197
x198
x199
x200
x201
x202
x203
x204
x205
x206
x207
x208
x209
x210
x211
x212
x213
x214
x215
x216
x217
x218
x219
x220
x221
x222
x223
x224
x225
x226
x227
x228
x229
x230
x231
x232
x233
x234
x235
x236
x237
x238
x239
x240
x241
x242
x243
x244
x245
x246
x247
x248
x249
x250
x251
x252
x253
x254
x255
x256
x257
x258
x259
x260
x261
x262
x263
x264
x265
x266
x267
x268
x269
x270
x271
x272
x273
x274
x275
x276
x277
x278
x279
x280
x281
x282
x283
x284
x285
x286
x287
x288
x289
x290
x291
x292
x293
x294
x295
x296
x297
x298
x299
End
